(declare-fun e () String)
(declare-fun c () String)
(declare-fun g () String)
(declare-fun b () String)
(declare-fun d () String)
(declare-fun a () String)
(declare-fun h () String)
(assert (= "gg" (str.++ "f" c "d" d "f")))
(assert (= (str.++ g c "h" a "he") (str.++ e g)))
(assert (= (str.++ "b" b "e" h) (str.++ d "bhhf")))

(check-sat)
